000 000 000 000 -99 -99 -99 -99 -99 -99 -99 -99 -99 000 000 -99 -99 -99 000 -99 000 000 -99 000 000 000 000 000 -99 -99 -99
-99 000 000 000 000 000 000 000 000 -99 -99 -99 -99 000 000 000 -99 -99 000 -99 -99 000 000 000 000 000 -99 -99 -99 -99 -99
-99 000 000 000 000 000 000 000 000 000 -99 -99 -99 -99 000 000 -99 -99 -99 -99 -99 000 000 -99 000 000 -99 -99 -99 -99 -99
000 000 000 000 000 000 000 000 000 000 -99 -99 -99 -99 000 000 -99 -99 -99 -99 -99 -99 000 000 000 -99 -99 -99 -99 -99 -99
000 000 000 000 000 000 000 -99 -99 -99 -99 -99 000 000 000 000 -99 -99 -99 -99 -99 -99 000 000 000 -99 -99 -99 -99 -99 -99
000 000 000 000 000 000 000 000 000 000 -99 -99 000 -99 -99 -99 -99 -99 -99 -99 000 -99 -99 000 000 -99 -99 -99 -99 -99 -99
000 000 000 000 000 000 000 000 000 000 000 -99 -99 -99 000 000 -99 000 -99 000 000 000 000 000 000 -99 -99 -99 -99 -99 -99
000 000 -99 000 000 000 000 000 -99 000 000 -99 -99 -99 000 -99 -99 000 -99 -99 000 000 000 000 000 -99 -99 -99 -99 -99 -99
000 000 000 000 000 000 000 -99 000 000 000 000 -99 -99 -99 000 -99 000 000 -99 000 000 -99 -99 000 -99 -99 -99 -99 -99 -99
000 000 000 000 000 000 -99 -99 000 000 000 000 -99 -99 000 000 -99 000 000 000 000 000 -99 000 000 -99 -99 -99 -99 -99 -99
000 000 -99 000 000 000 000 000 000 000 000 000 000 -99 000 000 -99 -99 000 000 000 -99 -99 000 000 -99 -99 -99 -99 -99 -99
000 000 000 000 000 000 000 000 000 000 000 000 000 -99 000 000 -99 -99 000 000 000 -99 -99 -99 000 -99 -99 000 000 000 -99
000 000 000 000 000 000 000 000 -99 000 000 000 000 -99 -99 000 -99 -99 -99 000 000 000 -99 -99 -99 -99 000 000 000 000 -99
000 000 000 000 000 000 000 000 -99 -99 000 000 000 000 -99 000 -99 -99 000 000 000 000 -99 -99 000 -99 000 000 000 -99 -99
000 -99 000 000 000 000 000 -99 000 -99 -99 000 000 000 -99 -99 000 -99 000 000 000 -99 -99 000 000 000 000 000 -99 -99 -99
000 -99 000 000 000 000 000 000 000 -99 -99 000 000 000 -99 000 000 -99 -99 000 -99 -99 -99 000 000 000 000 000 000 -99 -99
000 -99 000 000 000 000 000 000 000 -99 -99 -99 000 000 000 000 000 000 -99 -99 -99 -99 -99 000 000 000 000 000 -99 000 -99
000 000 000 -99 -99 000 000 000 000 -99 -99 -99 -99 000 000 000 000 000 -99 -99 -99 -99 000 000 000 000 000 000 -99 -99 -99
000 000 000 -99 -99 -99 000 000 000 000 000 000 -99 -99 000 000 000 000 000 -99 -99 000 000 -99 000 000 000 -99 -99 -99 -99
000 000 000 000 -99 -99 000 000 000 000 000 000 000 000 000 000 000 000 000 000 000 000 000 -99 -99 -99 -99 -99 -99 -99 -99
000 000 000 000 000 -99 -99 000 000 000 000 -99 000 000 000 000 000 000 000 000 000 000 000 -99 -99 -99 -99 -99 -99 -99 -99
000 000 000 000 000 000 000 000 000 000 -99 -99 000 000 000 000 000 000 000 000 000 000 000 -99 -99 -99 -99 -99 -99 -99 -99
000 000 000 000 000 000 000 000 000 000 -99 -99 000 000 000 000 000 000 000 000 000 000 000 -99 -99 -99 -99 -99 -99 -99 -99
000 000 000 000 000 000 000 000 000 000 -99 -99 000 000 000 000 000 000 000 000 000 000 -99 -99 -99 -99 -99 -99 -99 -99 -99
000 000 000 000 000 000 000 000 000 -99 -99 -99 000 000 000 000 000 000 000 000 000 000 -99 -99 -99 -99 -99 -99 -99 -99 -99
000 000 000 000 000 000 000 000 000 000 -99 -99 000 000 000 000 000 000 000 000 000 -99 -99 -99 -99 -99 -99 -99 -99 -99 -99
000 000 000 000 000 000 000 000 000 000 -99 -99 -99 000 000 000 000 000 000 000 000 000 000 -99 -99 -99 -99 -99 -99 -99 -99
000 000 000 000 000 000 000 000 000 000 -99 -99 -99 000 000 000 000 000 000 000 000 000 000 -99 -99 -99 -99 -99 -99 -99 000
000 000 000 000 000 000 000 000 000 000 002 -99 -99 000 000 000 000 000 000 000 000 000 -99 -99 -99 -99 -99 -99 -99 -99 000
000 000 000 000 000 000 000 000 000 000 013 -99 -99 000 000 000 000 000 000 000 000 000 -99 -99 -99 -99 -99 -99 -99 -99 000
000 000 000 000 000 000 000 000 000 003 053 -99 -99 000 000 000 000 000 000 000 -99 000 -99 -99 -99 -99 -99 -99 -99 -99 -99
000 000 000 000 000 -99 000 000 000 005 017 -99 -99 000 000 000 000 000 000 000 -99 000 -99 -99 -99 -99 -99 -99 -99 -99 -99
000 000 000 000 000 000 000 000 000 000 001 -99 -99 -99 000 000 000 000 000 -99 -99 -99 000 000 000 -99 -99 -99 -99 -99 000
000 000 000 000 000 000 000 000 000 000 -99 -99 -99 -99 000 000 000 000 000 -99 -99 -99 000 000 000 000 -99 -99 -99 000 000
000 000 000 000 000 000 000 000 000 000 000 000 000 -99 000 000 000 -99 000 000 000 000 000 -99 000 000 000 000 -99 000 000
000 000 000 000 000 000 000 000 000 000 -99 -99 000 000 000 000 000 000 000 000 000 000 000 -99 000 000 000 000 000 000 000
000 000 000 000 000 -99 -99 000 000 000 -99 -99 000 000 000 000 000 000 000 000 000 -99 000 -99 000 000 000 000 000 000 000
000 000 000 000 000 -99 -99 000 -99 -99 -99 -99 000 000 000 000 000 000 000 -99 000 -99 000 000 000 000 000 000 -99 000 000
000 000 000 000 -99 -99 -99 000 -99 -99 -99 -99 000 000 000 000 000 000 -99 -99 000 -99 -99 000 000 000 000 000 -99 000 -99
000 000 000 000 -99 -99 -99 -99 -99 -99 -99 -99 000 000 000 000 000 000 -99 -99 -99 -99 -99 000 000 000 000 000 -99 -99 -99
000 000 000 -99 -99 -99 -99 -99 -99 -99 000 000 000 000 000 000 -99 -99 000 000 -99 -99 000 000 000 000 000 -99 -99 -99 -99
000 000 -99 -99 -99 -99 000 000 -99 000 000 000 000 000 000 000 -99 000 000 000 -99 -99 000 000 000 000 -99 -99 -99 -99 -99
000 000 -99 -99 -99 000 000 000 -99 000 000 000 000 000 000 000 000 000 000 000 000 000 000 000 000 000 -99 -99 -99 -99 -99
000 000 -99 -99 -99 000 000 000 -99 000 000 000 000 000 000 000 000 000 000 000 000 000 000 -99 000 -99 -99 -99 -99 -99 -99
000 -99 -99 -99 -99 000 000 -99 -99 000 000 000 000 000 000 000 000 000 000 000 000 000 000 000 -99 000 000 -99 -99 -99 -99
-99 -99 -99 -99 -99 -99 -99 -99 -99 -99 -99 000 000 000 000 000 000 000 000 000 000 000 -99 000 -99 000 000 -99 -99 -99 -99
-99 -99 -99 -99 -99 -99 -99 -99 -99 -99 -99 000 000 000 000 -99 000 -99 -99 000 000 000 000 000 -99 000 000 -99 -99 -99 -99
-99 -99 -99 -99 -99 -99 -99 -99 -99 -99 -99 000 000 000 -99 -99 -99 -99 -99 000 000 000 000 000 000 000 -99 000 -99 -99 -99
-99 -99 -99 -99 -99 -99 -99 -99 -99 -99 -99 -99 000 000 -99 -99 -99 -99 -99 000 000 000 000 -99 000 000 000 000 -99 -99 -99
-99 -99 -99 -99 -99 -99 -99 -99 -99 -99 -99 000 000 000 -99 -99 -99 -99 -99 000 000 000 -99 -99 000 -99 000 000 000 -99 -99
-99 -99 -99 -99 -99 -99 -99 -99 -99 -99 -99 -99 000 -99 -99 -99 -99 -99 000 000 000 -99 -99 -99 -99 -99 000 -99 000 -99 -99
-99 -99 -99 -99 -99 -99 -99 -99 -99 -99 -99 -99 -99 -99 -99 -99 -99 000 000 000 -99 -99 -99 -99 -99 -99 -99 -99 -99 -99 -99
-99 -99 -99 -99 -99 -99 -99 -99 -99 -99 -99 -99 -99 -99 -99 -99 -99 000 000 000 -99 -99 -99 -99 -99 -99 -99 -99 -99 -99 -99
-99 -99 -99 -99 -99 -99 -99 -99 -99 -99 -99 -99 -99 -99 -99 -99 000 000 000 -99 -99 -99 -99 -99 -99 -99 -99 -99 -99 -99 -99
-99 -99 -99 -99 -99 -99 -99 -99 -99 -99 -99 -99 -99 -99 -99 000 000 000 000 -99 -99 -99 -99 -99 -99 -99 -99 -99 -99 -99 -99
